0001 4
0002 16
0003 4
0004 10
0005 1
0006 1
0007 15
0008 17
0009 1
0010 14
0011 8
0012 18
0013 7
0014 11
0015 1
0016 16
0017 2
0018 18
0019 1
0020 4
0021 16
0022 16
0023 16
0024 8
0025 13
0026 18
0027 15
0028 2
0029 2
0030 1
0031 9
0032 14
0033 6
0034 12
0035 18
0036 15
0037 3
0038 7
0039 11
0040 3
0041 16
0042 12
0043 1
0044 11
0045 17
0046 15
0047 9
0048 1
0049 18
0050 17
0051 14
0052 18
0053 9
0054 8
0055 7
0056 18
0057 13
0058 9
0059 3
0060 11
0061 1
0062 13
0063 18
0064 1
0065 6
0066 17
0067 18
0068 7
0069 9
0070 10
0071 1
0072 18
0073 15
0074 5
0075 11
0076 6
0077 9
0078 17
0079 12
0080 2
0081 12
0082 1
0083 14
0084 9
0085 12
0086 10
0087 16
0088 18
0089 13
0090 5
0091 1
0092 1
0093 18
0094 18
0095 9
0096 14
0097 15
0098 1
0099 1
0100 1
0101 5
0102 7
0103 5
0104 4
0105 18
0106 10
0107 1
0108 3
0109 5
0110 13
0111 1
0112 11
0113 10
0114 1
0115 13
0116 17
0117 18
0118 7
0119 9
0120 1
0121 12
0122 1
0123 1
0124 11
0125 18
0126 7
0127 5
0128 3
0129 15
0130 18
0131 13
0132 13
0133 10
0134 10
0135 4
0136 4
0137 8
0138 15
0139 14
0140 2
0141 13
0142 7
0143 7
0144 4
0145 18
0146 8
0147 1
0148 16
0149 16
0150 1
0151 8
0152 18
0153 1
0154 1
0155 5
0156 17
0157 18
0158 1
0159 3
0160 11
0161 1
0162 7
0163 18
0164 10
0165 10
0166 14
0167 8
0168 1
0169 18
0170 7
0171 18
0172 1
0173 18
0174 18
0175 18
0176 1
0177 6
0178 1
0179 6
0180 12
0181 18
0182 5
0183 8
0184 1
0185 11
0186 7
0187 1
0188 1
0189 18
0190 7
0191 15
0192 4
0193 1
0194 13
0195 18
0196 2
0197 9
0198 9
0199 2
0200 15
0201 14
0202 12
0203 18
0204 9
0205 9
0206 3
0207 5
0208 18
0209 16
0210 1
0211 13
0212 15
0213 1
0214 1
0215 2
0216 1
0217 6
0218 1
0219 11
0220 5
0221 16
0222 1
0223 10
0224 9
0225 13
0226 9
0227 18
0228 18
0229 17
0230 17
0231 12
0232 1
0233 8
0234 7
0235 18
0236 15
0237 17
0238 17
0239 18
0240 17
0241 6
0242 8
0243 4
0244 7
0245 18
0246 4
0247 1
0248 3
0249 18
0250 18
0251 4
0252 16
0253 2
0254 10
0255 8
0256 1
0257 8
0258 18
0259 18
0260 1
0261 13
0262 18
0263 18
0264 18
0265 18
0266 18
0267 16
0268 8
0269 13
0270 14
0271 5
0272 13
0273 18
0274 10
0275 9
0276 6
0277 1
0278 13
0279 16
0280 13
0281 17
0282 14
0283 8
0284 18
0285 13
0286 1
0287 11
0288 3
0289 3
0290 18
0291 10
0292 7
0293 3
0294 13
0295 18
0296 4
0297 13
0298 10
0299 1
0300 10
0301 1
0302 7
0303 1
0304 1
0305 12
0306 17
0307 1
0308 18
0309 6
0310 2
0311 9
0312 14
0313 14
0314 1
0315 18
0316 18
0317 17
0318 5
0319 6
0320 18
0321 1
0322 8
0323 8
0324 1
0325 15
0326 5
0327 18
0328 13
0329 17
0330 18
0331 1
0332 10
0333 6
0334 5
0335 5
0336 5
0337 18
0338 9
0339 17
0340 14
0341 5
0342 10
0343 18
0344 1
0345 18
0346 5
0347 18
0348 14
0349 3
0350 6
0351 12
0352 13
0353 9
0354 18
0355 1
0356 11
0357 2
0358 6
0359 15
0360 18
0361 7
0362 7
0363 1
0364 8
0365 2
0366 11
0367 18
0368 8
0369 1
0370 18
0371 14
0372 13
0373 11
0374 18
0375 12
0376 7
0377 12
0378 14
0379 17
0380 5
0381 17
